p wcnf 122 183 184 
1 111 83 0 
1 -81 -38 0 
1 -44 -4 0 
1 122 -87 0 
1 53 112 0 
1 89 91 0 
1 -18 27 0 
1 119 120 0 
1 26 -24 0 
1 31 -90 0 
1 -81 58 0 
1 39 26 0 
1 97 -15 0 
1 1 -35 0 
1 -103 50 0 
1 46 9 0 
1 71 116 0 
1 -45 93 0 
1 -87 4 0 
1 8 90 0 
1 63 74 0 
1 -10 -28 0 
1 -1 34 0 
1 10 101 0 
1 112 -64 0 
1 92 -62 0 
1 84 49 0 
1 -110 -71 0 
1 -14 -119 0 
1 -88 -4 0 
1 117 -51 0 
1 -27 -3 0 
1 -40 63 0 
1 -110 79 0 
1 62 -30 0 
1 117 -80 0 
1 75 -2 0 
1 53 112 0 
1 83 -108 0 
1 83 -104 0 
1 -59 111 0 
1 -117 -66 0 
1 110 8 0 
1 -81 -56 0 
1 12 112 0 
1 -37 -69 0 
1 -72 26 0 
1 115 116 0 
1 -1 -38 0 
1 -65 115 0 
1 87 -64 0 
1 -48 70 0 
1 -92 28 0 
1 86 29 0 
1 -67 55 0 
1 -73 95 0 
1 14 63 0 
1 -51 24 0 
1 64 -66 0 
1 12 -17 0 
1 -83 -8 0 
1 32 53 0 
1 -79 51 0 
1 -16 92 0 
1 -87 -113 0 
1 -10 97 0 
1 -9 79 0 
1 -14 37 0 
1 -48 -87 0 
1 -7 17 0 
1 17 14 0 
1 84 62 0 
1 115 61 0 
1 -41 66 0 
1 -116 73 0 
1 73 28 0 
1 -120 1 0 
1 113 -24 0 
1 -119 -58 0 
1 -85 -82 0 
1 111 -56 0 
1 108 -85 0 
1 -19 -47 0 
1 116 -7 0 
1 57 -16 0 
1 -97 116 0 
1 -42 48 0 
1 -13 46 0 
1 -99 -113 0 
1 -9 74 0 
1 -106 -75 0 
1 -62 51 0 
1 -37 -43 0 
1 -115 -107 0 
1 -88 -38 0 
1 -64 -23 0 
1 70 1 0 
1 -112 105 0 
1 -16 -22 0 
1 -75 102 0 
1 45 -2 0 
1 57 113 0 
1 52 -39 0 
1 -37 121 0 
1 -62 61 0 
1 48 -78 0 
1 71 -101 0 
1 104 90 0 
1 -67 -36 0 
1 -118 -115 0 
1 -54 45 0 
1 41 -50 0 
1 63 -78 0 
1 56 3 0 
1 -92 -101 0 
1 -95 1 0 
1 63 -25 0 
1 36 26 0 
1 -8 118 0 
1 -40 -45 0 
1 -122 108 0 
1 89 -39 0 
1 -21 42 0 
1 28 120 0 
1 32 98 0 
1 108 -89 0 
1 84 -83 0 
1 -99 -55 0 
1 -40 39 0 
1 70 -114 0 
1 -19 -120 0 
1 -62 -117 0 
1 -75 -70 0 
1 -21 -18 0 
1 -34 2 0 
1 96 40 0 
1 -47 60 0 
1 116 25 0 
1 -43 50 0 
1 14 109 0 
1 76 6 0 
1 -80 -77 0 
1 -113 109 0 
1 -44 71 0 
1 117 96 0 
1 -117 -69 0 
1 -82 64 0 
1 -86 28 0 
1 55 108 0 
1 5 73 0 
1 -96 25 0 
1 114 27 0 
1 53 -113 0 
1 122 58 0 
1 107 32 0 
1 121 -59 0 
1 102 6 0 
1 7 -87 0 
1 -30 83 0 
1 -69 -12 0 
1 -74 -113 0 
1 -91 -75 0 
1 -106 53 0 
1 49 -105 0 
1 -3 -52 0 
1 108 -42 0 
1 -39 -37 0 
1 6 37 0 
1 60 109 0 
1 -1 -118 0 
1 -103 66 0 
1 -54 21 0 
1 67 -51 0 
1 59 -107 0 
1 -36 -75 0 
1 84 -102 0 
1 83 73 0 
1 70 12 0 
1 -61 6 0 
1 -62 -122 0 
1 54 7 0 
1 -92 8 0 
1 112 13 0 
